(set-logic ALL)
(declare-const n_VAR Int)
(assert (not (<= n_VAR 0)))
(assert (< 2 n_VAR))
(assert (not (not (= (mod (+ 0 (* n_VAR (- n_VAR 1))) 2) 0))))
(assert (< 3 n_VAR))
(assert (not (not (= (mod (+ 0 (* n_VAR (- n_VAR 1))) 3) 0))))
(assert (< 4 n_VAR))
(check-sat)
(get-value (n_VAR))
